certificates/rado_a13_c294_N39.cnf
c Rad2 upper bound instance: x1 + 13*x2 - x3 = 294, interval [1,39]
p cnf 39 232
1 6 23 0
-1 -6 -23 0
1 19 24 0
-1 -19 -24 0
1 25 32 0
-1 -25 -32 0
2 7 23 0
-2 -7 -23 0
2 20 24 0
-2 -20 -24 0
2 25 33 0
-2 -25 -33 0
3 8 23 0
-3 -8 -23 0
3 21 24 0
-3 -21 -24 0
3 25 34 0
-3 -25 -34 0
4 9 23 0
-4 -9 -23 0
4 22 24 0
-4 -22 -24 0
4 25 35 0
-4 -25 -35 0
5 10 23 0
-5 -10 -23 0
5 23 24 0
-5 -23 -24 0
5 25 36 0
-5 -25 -36 0
6 11 23 0
-6 -11 -23 0
6 24 0
-6 -24 0
6 25 37 0
-6 -25 -37 0
7 12 23 0
-7 -12 -23 0
7 24 25 0
-7 -24 -25 0
7 25 38 0
-7 -25 -38 0
8 13 23 0
-8 -13 -23 0
8 24 26 0
-8 -24 -26 0
8 25 39 0
-8 -25 -39 0
1 9 22 0
-1 -9 -22 0
9 14 23 0
-9 -14 -23 0
9 24 27 0
-9 -24 -27 0
2 10 22 0
-2 -10 -22 0
10 15 23 0
-10 -15 -23 0
10 24 28 0
-10 -24 -28 0
3 11 22 0
-3 -11 -22 0
11 16 23 0
-11 -16 -23 0
11 24 29 0
-11 -24 -29 0
4 12 22 0
-4 -12 -22 0
12 17 23 0
-12 -17 -23 0
12 24 30 0
-12 -24 -30 0
5 13 22 0
-5 -13 -22 0
13 18 23 0
-13 -18 -23 0
13 24 31 0
-13 -24 -31 0
6 14 22 0
-6 -14 -22 0
14 19 23 0
-14 -19 -23 0
14 24 32 0
-14 -24 -32 0
7 15 22 0
-7 -15 -22 0
15 20 23 0
-15 -20 -23 0
15 24 33 0
-15 -24 -33 0
8 16 22 0
-8 -16 -22 0
16 21 23 0
-16 -21 -23 0
16 24 34 0
-16 -24 -34 0
9 17 22 0
-9 -17 -22 0
17 22 23 0
-17 -22 -23 0
17 24 35 0
-17 -24 -35 0
10 18 22 0
-10 -18 -22 0
18 23 0
-18 -23 0
18 24 36 0
-18 -24 -36 0
11 19 22 0
-11 -19 -22 0
19 23 24 0
-19 -23 -24 0
19 24 37 0
-19 -24 -37 0
12 20 22 0
-12 -20 -22 0
20 23 25 0
-20 -23 -25 0
20 24 38 0
-20 -24 -38 0
13 21 22 0
-13 -21 -22 0
21 23 26 0
-21 -23 -26 0
21 24 39 0
-21 -24 -39 0
1 21 22 0
-1 -21 -22 0
14 22 0
-14 -22 0
22 23 27 0
-22 -23 -27 0
2 21 23 0
-2 -21 -23 0
15 22 23 0
-15 -22 -23 0
23 28 0
-23 -28 0
16 22 24 0
-16 -22 -24 0
23 24 29 0
-23 -24 -29 0
4 21 25 0
-4 -21 -25 0
17 22 25 0
-17 -22 -25 0
23 25 30 0
-23 -25 -30 0
5 21 26 0
-5 -21 -26 0
18 22 26 0
-18 -22 -26 0
23 26 31 0
-23 -26 -31 0
6 21 27 0
-6 -21 -27 0
19 22 27 0
-19 -22 -27 0
23 27 32 0
-23 -27 -32 0
7 21 28 0
-7 -21 -28 0
20 22 28 0
-20 -22 -28 0
23 28 33 0
-23 -28 -33 0
8 21 29 0
-8 -21 -29 0
21 22 29 0
-21 -22 -29 0
23 29 34 0
-23 -29 -34 0
9 21 30 0
-9 -21 -30 0
22 30 0
-22 -30 0
23 30 35 0
-23 -30 -35 0
10 21 31 0
-10 -21 -31 0
22 23 31 0
-22 -23 -31 0
23 31 36 0
-23 -31 -36 0
11 21 32 0
-11 -21 -32 0
22 24 32 0
-22 -24 -32 0
23 32 37 0
-23 -32 -37 0
12 21 33 0
-12 -21 -33 0
22 25 33 0
-22 -25 -33 0
23 33 38 0
-23 -33 -38 0
13 21 34 0
-13 -21 -34 0
22 26 34 0
-22 -26 -34 0
23 34 39 0
-23 -34 -39 0
1 20 35 0
-1 -20 -35 0
14 21 35 0
-14 -21 -35 0
22 27 35 0
-22 -27 -35 0
2 20 36 0
-2 -20 -36 0
15 21 36 0
-15 -21 -36 0
22 28 36 0
-22 -28 -36 0
3 20 37 0
-3 -20 -37 0
16 21 37 0
-16 -21 -37 0
22 29 37 0
-22 -29 -37 0
4 20 38 0
-4 -20 -38 0
17 21 38 0
-17 -21 -38 0
22 30 38 0
-22 -30 -38 0
5 20 39 0
-5 -20 -39 0
18 21 39 0
-18 -21 -39 0
22 31 39 0
-22 -31 -39 0
