certificates/rado_a13_c294_N39.drat
23 -36 -37 -39 0
-22 32 -23 -39 0
-23 -37 -38 -39 0
-37 -38 -39 0
d -23 -37 -38 -39 0
23 36 37 -39 0
36 37 -39 0
d 23 36 37 -39 0
-22 33 -23 -39 0
-23 -38 -39 0
-38 -39 0
d -37 -38 -39 0
23 -39 0
d -36 -37 23 -39 0
37 12 25 -23 0
25 -39 0
-39 0
-23 0
18 0
28 0
34 0
-24 -20 0
-20 3 0
-25 0
8 0
30 0
20 0
-22 0
-24 0
3 0
17 0
14 0
27 0
15 0
31 0
33 0
6 0
29 0
5 0
19 0
21 0
16 0
32 0
4 0
7 0
-37 0
-12 0
0
